NAME : block_41.326358.tour
COMMENT : Length = 326358
COMMENT : Found by LKH-3 [Keld Helsgaun] Mon Feb  2 23:14:32 2026
TYPE : TOUR
DIMENSION : 93
TOUR_SECTION
50
39
29
20
13
21
30
40
51
60
69
76
82
87
88
83
77
70
61
52
41
31
22
14
8
5
9
15
23
32
42
53
62
71
78
84
89
92
90
85
79
72
63
54
43
33
24
16
10
6
3
4
7
11
17
25
26
18
12
19
27
36
46
45
35
34
44
55
56
65
64
73
80
86
91
2
93
1
81
75
68
67
74
66
57
47
48
37
28
38
49
58
59
-1
EOF
